50
   100    45    80    22    66    92     8    51    27    27    95    82    64    63    41     9    21     1    62    69    12    37    91    38    14    55    75    34    70    29    77    14    87    26    77    77    42     2    70    63    73     4    65    51    87    69    88    62    54    26
    10     1     8    10     2     7     9     5     1     3     6     5     6     1     2     8     2     9     6     2     8     4     9     8     9    10     1     9     1     7     3     1     1     3     1     3     3     2     7     2     2     8     8     3     4    10     4     8     2     4
  1522  1779  1113   903   427   460  1700   750   284  1445   788   364  1205  1148  1502  1800   597   498   889  1498  1373  1588  1617   535   727   435  1150  1661  1455   730   344   895   735   375   385  1660  1441   580   505  1717   927  1720  1144  1084   785  1545  1663  1404   294   378
